1021
3012
7315
7264
3940
6780
2024
2678
5172
7288
1608
6652
7529
7634
6406
7744
2763
6743
5566
946
8983
2531
7594
2553
1379
2566
4788
7220
8189
8628
7417
1508
4585
6479
3798
6269
9502
708
1555
8309
1535
1162
6993
6954
5399
8978
5229
905
1907
6385
2138
